# RexPoN - generated by optimizer
units            real
atom_style       pqeq
boundary         p p p

read_data        data_lammps_co2.dimer_9
timestep         0.1
neigh_modify     one 10000 page 100000

pair_style       hybrid/overlay coul/pqeqgauss 0.00 12.00 rexpon NULL lgvdw yes coulomb_off yes checkqeq no safezone 2.0 mincap 200

#           i j                  Xi       Ji       Rc       p  Qc       Rs          K2      K4
pair_coeff  * * rexpon ffield.RexPoN O C
pair_coeff  * * coul/pqeqgauss 0 0 0 0 0 0 0 0
pair_coeff 1 1 coul/pqeqgauss 8.74100 13.36400 0.80280 1 1.000000 0.80280 814.04451 0.00000
pair_coeff 2 2 coul/pqeqgauss 7.01672 10.22431 0.79554 1 1.000000 0.79554 377.67208 0.00000

fix  pqeq all pqeq method 2 nevery 1 charge 0.0 tolerance 1.0e-6 damp 1.0

compute          pqeq all pair coul/pqeqgauss
compute          reax all pair rexpon
variable eb             equal c_reax[1]
variable ea             equal c_reax[2]
variable elp    equal c_reax[3]
variable emol   equal c_reax[4]
variable ev             equal c_reax[5]
variable epen   equal c_reax[6]
variable ecoa   equal c_reax[7]
variable ehb    equal c_reax[8]
variable et             equal c_reax[9]
variable eco    equal c_reax[10]
variable ew             equal c_reax[11]
variable ep             equal c_reax[12]
variable efi    equal c_reax[13]
variable eqeq   equal c_reax[14]
variable epqeq  equal c_pqeq
thermo     1
thermo_style custom step pe v_eb v_ew v_ehb v_ev  v_et v_epqeq
 compute 2 all property/atom q
compute 3 all property/atom type
compute 4 all property/atom id
variable charge equal q
variable typei equal type
variable idi equal id
compute fox all property/atom fx
compute foy all property/atom fy
compute foz all property/atom fz
variable etota equal etotal
compute eng all pe
run 10

